95 59 92 98 61 16 86 85 99 6 94 53 
27 31 63 64 11 19 62 88 7 18 8 46 17 91 100 93 
82 47 36 49 48 60 89 
28 12 29 79 81 51 9 78 34 3 50 
33 65 71 30 90 10 20 66 35 32 70 1 
52 69 76 21 40 26 54 68 77 
5 83 45 84 96 
2 42 15 14 44 38 43 37 97 13 58 
72 39 67 23 75 73 87 57 41 22 56 74 4 55 25 24 80 
